\ This file was automatically generated by Zimpl
\ var w1 >= 0;
\ var w2 >= 0;
\ minimize Z :      5*w1 + 12*w2;
\ subto r1:     1*w1 + 2*w2 >= 2;
\ subto r2:     1*w1 + 3*w2 >= 3;
\Problem name: .\pd.zpl
Minimize
 Z:  +5 w1 +12 w2
Subject to
 r1_1:
  +2 w2 + w1 >= 2
 r2_1:
  +3 w2 + w1 >= 3
Bounds
 0 <= w1 <= +inf
 0 <= w2 <= +inf
End
